%chk=td1.chk
%NProcShared=4
# cam-b3lyp/6-31+G**  force nosymm td(root=1,nstates=10)

 Title

0 1
 6       -0.160735    0.387687    0.000083
 7        1.080995   -0.158228   -0.000037
 8       -1.193398   -0.245313   -0.000066
 1        1.168705   -1.162517    0.000104
 1        1.909215    0.412186    0.000224
 1       -0.133284    1.494310   -0.000044

