%chk=td4-orient.chk
%NProcShared=4
# cam-b3lyp/aug-cc-pvdz  td(root=1,nstates=20) SCRF=PCM int(grid=ultrafine)

 Title

0 1
 6       -0.239542    0.190148    0.131589
 7        1.058802   -0.329763   -0.106347
 8       -1.292056    0.128222   -0.589641
 1        1.499638   -0.778042    0.692800
 1        1.723475    0.264394   -0.609908
 1       -0.070546    1.254127    0.481724

