%chk=td8.chk
%NProcShared=4
# pbepbe/6-31G**  force nosymm td(root=8,nstates=10)

 Title

0 1
   8    5.235738    0.617373   -0.000447
  16   -4.174003    0.235363    0.000321
   8   -2.823384   -1.994591    0.000309
   6    1.167585   -0.421726   -0.000102
   6    1.556377    0.940295   -0.000241
   6    2.197884   -1.395767   -0.000093
   6    2.899520    1.308740   -0.000357
   6    3.544975   -1.042769   -0.000206
   6    3.904328    0.318063   -0.000338
   6   -0.217686   -0.864653    0.000031
   6   -1.347603   -0.104838    0.000115
   6   -2.659346   -0.776722    0.000257
   1    0.794323    1.725075   -0.000265
   1    1.921170   -2.455092    0.000009
   1    3.179454    2.368794   -0.000467
   1    4.333758   -1.798955   -0.000197
   1   -0.378007   -1.951357    0.000077
   1   -1.307445    0.986861    0.000096
   1    5.334084    1.588162   -0.000531
   6   -3.653008    1.991377    0.000316
   1   -4.585845    2.575183    0.000443
   1   -3.082324    2.250658   -0.903768
   1   -3.082104    2.250606    0.904277

