%chk=td5.chk
%NProcShared=4
# cam-b3lyp/6-31G**  force nosymm td(root=5,nstates=8)

 Title

0 1
 6       -0.161453    0.387024   -0.000100
 7        1.081733   -0.157452   -0.000076
 8       -1.194449   -0.245367    0.000068
 1        1.174611   -1.162764    0.000191
 1        1.912136    0.412757    0.000321
 1       -0.134568    1.492965    0.000079

