%chk=freq.chk
%NProcShared=4
# pbepbe/6-31G**  opt(tight) Freq=(savenormalmodes,raman) SCRF=PCM

 Title

0 1
  6     -1.844704    0.046731   -0.000101
  7     -1.075845    1.171998    0.000337
  8     -1.395472   -1.178319   -0.000100
  1      0.114743    1.179868    0.000267
  1     -1.622941    2.063172   -0.000156
  1     -2.953263    0.202523   -0.000137
  6      1.844553   -0.046662    0.000074
  7      1.075813   -1.172168    0.000001
  8      1.395552    1.178397   -0.000269
  1     -0.115368   -1.180059   -0.000075
  1      2.953185   -0.202617    0.000312
  1      1.624129   -2.062733    0.000535

