%chk=td1.chk
%NProcShared=4
# pbepbe/6-31G**  force nosymm td(root=1,nstates=10) SCRF=PCM

 Title

0 1
