%chk=td.chk
%NProcShared=4
# b3lyp/6-31G(d) TD(root=1) Force nosymm

Title

 0 1
 6                     3.66055  -0.71328   0. 
 6                     3.66055   0.71328   0. 
 6                     2.47952   1.40723   0. 
 6                     1.22385   0.72256   0. 
 6                     2.47952  -1.40723   0. 
 6                     1.22385  -0.72256   0. 
 6                     0.        1.40359   0. 
 6                    -1.22386   0.72256   0. 
 6                     0.       -1.40359   0. 
 6                    -1.22386  -0.72256   0. 
 6                    -2.47952   1.40723   0. 
 6                    -3.66055   0.71328   0. 
 6                    -3.66055  -0.71328   0. 
 6                    -2.47952  -1.40723   0. 
 1                     4.60744  -1.24643   0. 
 1                     4.60744   1.24643   0. 
 1                     2.47641   2.49479   0. 
 1                     2.47641  -2.49479   0. 
 1                     0.        2.49196   0. 
 1                     0.       -2.49196   0. 
 1                    -2.47641   2.49479   0. 
 1                    -4.60744   1.24643   0. 
 1                    -4.60744  -1.24643   0. 
 1                    -2.47641  -2.49479   0. 
 

