%chk=td4-opt.chk
%NProcShared=4
# cam-b3lyp/aug-cc-pvtz  opt nosymm td(root=4,nstates=20) int(grid=ultrafine)

 Title

0 1
 6       -0.086857    0.391953    0.000012
 7        1.068565   -0.175626    0.000099
 8       -1.185191   -0.202253   -0.000067
 1        1.212285   -1.219303    0.000107
 1        1.893741    0.408143    0.000159
 1       -0.244822    1.529134    0.000008

