%chk=opt.chk
%NProcShared=4
# ccsd/6-31G*  opt(tight) nosymm

 Title

0 1
 6       -0.160335    0.390502    0.000016
 7        1.085620   -0.158481   -0.000132
 8       -1.199442   -0.246944    0.000035
 1        1.177364   -1.165444    0.000181
 1        1.918391    0.410991    0.000339
 1       -0.137551    1.496358    0.000024

