%chk=td3.chk
%NProcShared=4
# cam-b3lyp/aug-cc-pvdz  force nosymm td(root=3,nstates=20,NonEqSolv) SCRF=PCM int=(grid=ultrafine)

 Title

0 1
 6       -0.148406    0.389411   -0.000008
 7        1.075890   -0.160923    0.000060
 8       -1.199011   -0.244372   -0.000076
 1        1.182007   -1.166648    0.000092
 1        1.902982    0.416959    0.000154
 1       -0.133692    1.494659   -0.000005

