%chk=td4-opt.chk
%NProcShared=4
# cam-b3lyp/aug-cc-pvdz  opt(maxCycle=100) nosymm td(root=2,nstates=20) SCRF=PCM int(grid=ultrafine)

 Title

0 1
 6       -0.220532    0.375150    0.262971
 7        1.076112   -0.232037   -0.080658
 8       -1.181122   -0.123931   -0.415466
 1        1.337387   -1.088173    0.414026
 1        1.873679    0.306002   -0.414834
 1       -0.205754    1.492074    0.234178

