%chk=freq.chk
%NProcShared=4
# pbepbe/6-31G**  opt(tight) Freq=(savenormalmodes,raman) SCRF=PCM

 Title

0 1
 6       -0.153588    0.389845   -0.000116
 7        1.087813   -0.158690   -0.000092
 8       -1.188645   -0.239167    0.000052
 1        1.177406   -1.164300    0.000175
 1        1.920074    0.408803    0.000305
 1       -0.123090    1.495692    0.000063

