%chk=td-opt.chk
%nProcShared=4
# bp86/TZVP TD(root=1) opt

 Title

0 1
 6        0.222536    3.132439   -0.000005
 6        0.638934    1.802262    0.000012
 6       -0.222536    0.677491   -0.000007
 6        0.222536   -0.677491   -0.000007
 6       -0.638934   -1.802262    0.000012
 6       -0.222536   -3.132439   -0.000005
 1       -1.304890    0.856174   -0.000013
 1        1.304890   -0.856174   -0.000013
 1       -1.717549   -1.601367    0.000036
 1        0.838939   -3.394427   -0.000034
 1       -0.943536   -3.950708    0.000013
 1        0.943536    3.950708    0.000013
 1       -0.838939    3.394427   -0.000034
 1        1.717549    1.601367    0.000036

