%chk=td6.chk
%NProcShared=4
# pbepbe/6-31G**  force nosymm td(root=6,nstates=8)

 Title

0 1
 6       -0.160394    0.390526    0.000000
 7        1.090797   -0.161160   -0.000052
 8       -1.208310   -0.245544   -0.000007
 1        1.182918   -1.173762    0.000146
 1        1.927106    0.413835    0.000266
 1       -0.116755    1.509243    0.000014

